20
1 0 26
2 0 34
2 1 31
3 0 3
3 1 9
3 2 39
4 0 29
4 1 5
4 2 6
4 3 38
5 0 32
5 1 19
5 2 23
5 3 8
5 4 28
6 0 38
6 1 21
6 2 36
6 3 22
6 4 38
6 5 39
7 0 28
7 1 13
7 2 12
7 3 34
7 4 27
7 5 3
7 6 31
8 0 13
8 1 12
8 2 36
8 3 6
8 4 4
8 5 10
8 6 37
8 7 3
9 0 26
9 1 32
9 2 32
9 3 35
9 4 20
9 5 14
9 6 37
9 7 3
9 8 1
10 0 40
10 1 23
10 2 19
10 3 18
10 4 40
10 5 14
10 6 34
10 7 40
10 8 17
10 9 17
11 0 26
11 1 14
11 2 17
11 3 15
11 4 11
11 5 23
11 6 40
11 7 27
11 8 37
11 9 40
11 10 36
12 0 3
12 1 1
12 2 28
12 3 22
12 4 25
12 5 20
12 6 5
12 7 28
12 8 30
12 9 34
12 10 6
12 11 4
13 0 5
13 1 16
13 2 8
13 3 3
13 4 23
13 5 12
13 6 13
13 7 39
13 8 34
13 9 10
13 10 22
13 11 18
13 12 32
14 0 3
14 1 37
14 2 30
14 3 7
14 4 11
14 5 28
14 6 23
14 7 8
14 8 14
14 9 34
14 10 7
14 11 25
14 12 39
14 13 39
15 0 33
15 1 1
15 2 23
15 3 2
15 4 26
15 5 7
15 6 7
15 7 22
15 8 22
15 9 10
15 10 40
15 11 10
15 12 33
15 13 34
15 14 19
16 0 15
16 1 21
16 2 12
16 3 4
16 4 39
16 5 31
16 6 16
16 7 8
16 8 35
16 9 18
16 10 3
16 11 19
16 12 13
16 13 10
16 14 9
16 15 38
17 0 17
17 1 25
17 2 24
17 3 25
17 4 36
17 5 20
17 6 8
17 7 9
17 8 23
17 9 21
17 10 27
17 11 11
17 12 33
17 13 11
17 14 3
17 15 1
17 16 2
18 0 30
18 1 12
18 2 25
18 3 22
18 4 6
18 5 18
18 6 18
18 7 18
18 8 25
18 9 11
18 10 40
18 11 36
18 12 13
18 13 19
18 14 2
18 15 40
18 16 17
18 17 13
19 0 23
19 1 3
19 2 25
19 3 6
19 4 16
19 5 22
19 6 7
19 7 16
19 8 19
19 9 24
19 10 31
19 11 14
19 12 17
19 13 36
19 14 33
19 15 31
19 16 32
19 17 18
19 18 14
